50, 648
14, 12
24, 20
47, 44
35, 36
15, 15
32, 36
31, 34
25, 30
31, 29
20, 21
17, 22
35, 30
3, 7
41, 37
29, 28
8, 3
38, 33
40, 35
29, 30
44, 42
35, 31
50, 46
44, 44
6, 10
9, 13
3, 1
13, 17
7, 7
17, 15
19, 19
21, 26
4, 9
12, 13
35, 34
39, 37
14, 14
33, 38
21, 19
39, 43
14, 15
46, 48
1, 1
40, 35
18, 16
15, 11
47, 50
33, 34
22, 24
46, 41
35, 36
